c File: flat50_3_0.col
c
c SOURCE: Joseph Culberson (joe@cs.ualberta.ca)
c DESCRIPTION: Quasi-random coloring problem
c              generated with flatness = 0
c                             probability = 0.139
c                             known coloring = 3
c                             random seed = 1180
c              Creation Date:  Tue Jun  9 12:03:06 1998
c Maximum degree = 8 Minimum degree = 1
c p edge 50 115
c cnf created by edge2cnf
p cnf 150 545
-1 -2 0
-1 -3 0
-2 -3 0
1 2 3 0
-4 -5 0
-4 -6 0
-5 -6 0
4 5 6 0
-7 -8 0
-7 -9 0
-8 -9 0
7 8 9 0
-10 -11 0
-10 -12 0
-11 -12 0
10 11 12 0
-13 -14 0
-13 -15 0
-14 -15 0
13 14 15 0
-16 -17 0
-16 -18 0
-17 -18 0
16 17 18 0
-19 -20 0
-19 -21 0
-20 -21 0
19 20 21 0
-22 -23 0
-22 -24 0
-23 -24 0
22 23 24 0
-25 -26 0
-25 -27 0
-26 -27 0
25 26 27 0
-28 -29 0
-28 -30 0
-29 -30 0
28 29 30 0
-31 -32 0
-31 -33 0
-32 -33 0
31 32 33 0
-34 -35 0
-34 -36 0
-35 -36 0
34 35 36 0
-37 -38 0
-37 -39 0
-38 -39 0
37 38 39 0
-40 -41 0
-40 -42 0
-41 -42 0
40 41 42 0
-43 -44 0
-43 -45 0
-44 -45 0
43 44 45 0
-46 -47 0
-46 -48 0
-47 -48 0
46 47 48 0
-49 -50 0
-49 -51 0
-50 -51 0
49 50 51 0
-52 -53 0
-52 -54 0
-53 -54 0
52 53 54 0
-55 -56 0
-55 -57 0
-56 -57 0
55 56 57 0
-58 -59 0
-58 -60 0
-59 -60 0
58 59 60 0
-61 -62 0
-61 -63 0
-62 -63 0
61 62 63 0
-64 -65 0
-64 -66 0
-65 -66 0
64 65 66 0
-67 -68 0
-67 -69 0
-68 -69 0
67 68 69 0
-70 -71 0
-70 -72 0
-71 -72 0
70 71 72 0
-73 -74 0
-73 -75 0
-74 -75 0
73 74 75 0
-76 -77 0
-76 -78 0
-77 -78 0
76 77 78 0
-79 -80 0
-79 -81 0
-80 -81 0
79 80 81 0
-82 -83 0
-82 -84 0
-83 -84 0
82 83 84 0
-85 -86 0
-85 -87 0
-86 -87 0
85 86 87 0
-88 -89 0
-88 -90 0
-89 -90 0
88 89 90 0
-91 -92 0
-91 -93 0
-92 -93 0
91 92 93 0
-94 -95 0
-94 -96 0
-95 -96 0
94 95 96 0
-97 -98 0
-97 -99 0
-98 -99 0
97 98 99 0
-100 -101 0
-100 -102 0
-101 -102 0
100 101 102 0
-103 -104 0
-103 -105 0
-104 -105 0
103 104 105 0
-106 -107 0
-106 -108 0
-107 -108 0
106 107 108 0
-109 -110 0
-109 -111 0
-110 -111 0
109 110 111 0
-112 -113 0
-112 -114 0
-113 -114 0
112 113 114 0
-115 -116 0
-115 -117 0
-116 -117 0
115 116 117 0
-118 -119 0
-118 -120 0
-119 -120 0
118 119 120 0
-121 -122 0
-121 -123 0
-122 -123 0
121 122 123 0
-124 -125 0
-124 -126 0
-125 -126 0
124 125 126 0
-127 -128 0
-127 -129 0
-128 -129 0
127 128 129 0
-130 -131 0
-130 -132 0
-131 -132 0
130 131 132 0
-133 -134 0
-133 -135 0
-134 -135 0
133 134 135 0
-136 -137 0
-136 -138 0
-137 -138 0
136 137 138 0
-139 -140 0
-139 -141 0
-140 -141 0
139 140 141 0
-142 -143 0
-142 -144 0
-143 -144 0
142 143 144 0
-145 -146 0
-145 -147 0
-146 -147 0
145 146 147 0
-148 -149 0
-148 -150 0
-149 -150 0
148 149 150 0
-64 -1 0
-65 -2 0
-66 -3 0
-73 -1 0
-74 -2 0
-75 -3 0
-88 -1 0
-89 -2 0
-90 -3 0
-94 -1 0
-95 -2 0
-96 -3 0
-127 -1 0
-128 -2 0
-129 -3 0
-130 -1 0
-131 -2 0
-132 -3 0
-148 -1 0
-149 -2 0
-150 -3 0
-55 -4 0
-56 -5 0
-57 -6 0
-130 -4 0
-131 -5 0
-132 -6 0
-61 -7 0
-62 -8 0
-63 -9 0
-103 -7 0
-104 -8 0
-105 -9 0
-106 -7 0
-107 -8 0
-108 -9 0
-67 -10 0
-68 -11 0
-69 -12 0
-76 -10 0
-77 -11 0
-78 -12 0
-109 -10 0
-110 -11 0
-111 -12 0
-136 -10 0
-137 -11 0
-138 -12 0
-70 -13 0
-71 -14 0
-72 -15 0
-85 -13 0
-86 -14 0
-87 -15 0
-106 -13 0
-107 -14 0
-108 -15 0
-139 -13 0
-140 -14 0
-141 -15 0
-64 -16 0
-65 -17 0
-66 -18 0
-103 -16 0
-104 -17 0
-105 -18 0
-55 -19 0
-56 -20 0
-57 -21 0
-100 -19 0
-101 -20 0
-102 -21 0
-118 -19 0
-119 -20 0
-120 -21 0
-121 -19 0
-122 -20 0
-123 -21 0
-124 -19 0
-125 -20 0
-126 -21 0
-52 -22 0
-53 -23 0
-54 -24 0
-67 -22 0
-68 -23 0
-69 -24 0
-79 -22 0
-80 -23 0
-81 -24 0
-88 -22 0
-89 -23 0
-90 -24 0
-112 -22 0
-113 -23 0
-114 -24 0
-73 -25 0
-74 -26 0
-75 -27 0
-97 -25 0
-98 -26 0
-99 -27 0
-55 -28 0
-56 -29 0
-57 -30 0
-103 -28 0
-104 -29 0
-105 -30 0
-109 -28 0
-110 -29 0
-111 -30 0
-121 -28 0
-122 -29 0
-123 -30 0
-148 -28 0
-149 -29 0
-150 -30 0
-70 -31 0
-71 -32 0
-72 -33 0
-73 -31 0
-74 -32 0
-75 -33 0
-79 -31 0
-80 -32 0
-81 -33 0
-88 -31 0
-89 -32 0
-90 -33 0
-115 -31 0
-116 -32 0
-117 -33 0
-139 -31 0
-140 -32 0
-141 -33 0
-52 -34 0
-53 -35 0
-54 -36 0
-58 -34 0
-59 -35 0
-60 -36 0
-106 -34 0
-107 -35 0
-108 -36 0
-112 -34 0
-113 -35 0
-114 -36 0
-127 -34 0
-128 -35 0
-129 -36 0
-148 -34 0
-149 -35 0
-150 -36 0
-91 -37 0
-92 -38 0
-93 -39 0
-94 -37 0
-95 -38 0
-96 -39 0
-127 -37 0
-128 -38 0
-129 -39 0
-55 -40 0
-56 -41 0
-57 -42 0
-64 -40 0
-65 -41 0
-66 -42 0
-118 -40 0
-119 -41 0
-120 -42 0
-145 -40 0
-146 -41 0
-147 -42 0
-67 -43 0
-68 -44 0
-69 -45 0
-82 -43 0
-83 -44 0
-84 -45 0
-103 -43 0
-104 -44 0
-105 -45 0
-118 -43 0
-119 -44 0
-120 -45 0
-130 -43 0
-131 -44 0
-132 -45 0
-133 -43 0
-134 -44 0
-135 -45 0
-64 -46 0
-65 -47 0
-66 -48 0
-70 -46 0
-71 -47 0
-72 -48 0
-73 -46 0
-74 -47 0
-75 -48 0
-79 -46 0
-80 -47 0
-81 -48 0
-112 -46 0
-113 -47 0
-114 -48 0
-127 -46 0
-128 -47 0
-129 -48 0
-133 -46 0
-134 -47 0
-135 -48 0
-136 -46 0
-137 -47 0
-138 -48 0
-58 -49 0
-59 -50 0
-60 -51 0
-67 -49 0
-68 -50 0
-69 -51 0
-76 -49 0
-77 -50 0
-78 -51 0
-94 -49 0
-95 -50 0
-96 -51 0
-130 -49 0
-131 -50 0
-132 -51 0
-106 -55 0
-107 -56 0
-108 -57 0
-115 -55 0
-116 -56 0
-117 -57 0
-148 -55 0
-149 -56 0
-150 -57 0
-142 -58 0
-143 -59 0
-144 -60 0
-148 -58 0
-149 -59 0
-150 -60 0
-103 -61 0
-104 -62 0
-105 -63 0
-121 -61 0
-122 -62 0
-123 -63 0
-142 -61 0
-143 -62 0
-144 -63 0
-106 -64 0
-107 -65 0
-108 -66 0
-130 -64 0
-131 -65 0
-132 -66 0
-103 -70 0
-104 -71 0
-105 -72 0
-139 -70 0
-140 -71 0
-141 -72 0
-148 -70 0
-149 -71 0
-150 -72 0
-118 -73 0
-119 -74 0
-120 -75 0
-130 -73 0
-131 -74 0
-132 -75 0
-121 -76 0
-122 -77 0
-123 -78 0
-139 -76 0
-140 -77 0
-141 -78 0
-133 -79 0
-134 -80 0
-135 -81 0
-136 -79 0
-137 -80 0
-138 -81 0
-139 -79 0
-140 -80 0
-141 -81 0
-148 -79 0
-149 -80 0
-150 -81 0
-118 -82 0
-119 -83 0
-120 -84 0
-103 -88 0
-104 -89 0
-105 -90 0
-124 -88 0
-125 -89 0
-126 -90 0
-133 -88 0
-134 -89 0
-135 -90 0
-136 -88 0
-137 -89 0
-138 -90 0
-106 -91 0
-107 -92 0
-108 -93 0
-121 -91 0
-122 -92 0
-123 -93 0
-136 -91 0
-137 -92 0
-138 -93 0
-142 -91 0
-143 -92 0
-144 -93 0
-103 -94 0
-104 -95 0
-105 -96 0
-115 -94 0
-116 -95 0
-117 -96 0
-142 -94 0
-143 -95 0
-144 -96 0
-118 -97 0
-119 -98 0
-120 -99 0
-106 -100 0
-107 -101 0
-108 -102 0
-121 -100 0
-122 -101 0
-123 -102 0
-124 -100 0
-125 -101 0
-126 -102 0
-133 -100 0
-134 -101 0
-135 -102 0
